Optimal - objective value 21.00000000
     13 x_0_14                  1                       0
     21 x_1_4                   1                       2
     26 x_1_9                   1                       2
     32 x_1_15                  1                       1
     60 x_3_10                  1                       5
     76 x_4_11                  1                       1
    110 x_6_18                  1                       1
    125 x_8_10                  1                       2
    133 x_8_18                  1                       3
    143 x_9_18                  1                       1
    159 x_11_17                 1                       1
    178 x_14_18                 1                       1
    216 f_0_14                 10                       0
    232 f_1_4                   6                       0
    233 f_4_1                   4                       0
    242 f_1_9                 3.5                       0
    243 f_9_1                 6.5                       0
    254 f_1_15                5.5                       0
    255 f_15_1                4.5                       0
    310 f_3_10                4.5                       0
    311 f_10_3                5.5                       0
    342 f_4_11                5.5                       0
    343 f_11_4                4.5                       0
    411 f_18_6                  1                       0
    440 f_8_10                  6                       0
    441 f_10_8                  4                       0
    456 f_8_18                3.5                       0
    457 f_18_8                6.5                       0
    476 f_9_18                  3                       0
    477 f_18_9                  7                       0
    508 f_11_17               5.5                       0
    509 f_17_11               4.5                       0
    546 f_14_18               9.5                       0
    547 f_18_14   0.500000000000002                       0
